Cromium bcc afm                         
   2.91000000000000     
     0.9655206793832637    0.0000000000000000    0.0000000000000000
     0.0000000000000000    0.9655206793832637    0.0000000000000000
     0.0000000000000000    0.0000000000000000    0.9655206793832637
   Cr
     2
Direct
  0.0000000000000000  0.0000000000000000  0.0000000000000000
  0.5000000000000000  0.5000000000000000  0.5000000000000000
 
  0.00000000E+00  0.00000000E+00  0.00000000E+00
  0.00000000E+00  0.00000000E+00  0.00000000E+00
