Automatic Kpoints generation
0
manual
12 12 12

