ADDGRID = .TRUE.
EDIFF = 1E-8
ENCUT = 300
LREAL = .FALSE.
PREC = accurate
LWAVE = .FALSE.
LCHARG = .FALSE.
NCORE = 4
KPAR = 4
ISMEAR = -5
NSW = 11
IBRION = 2
 
